20170516 60 0 0 0
20160427 100 0 0 0
20150514 200 10000 0 0
20140519 200 0 0 0
20130510 500 10000 0 0
20120522 600 0 0 0
20110520 500 0 0 0
20100304 200 0 0 0
20090413 600 6000 0 0
20060921 240 0 0 0
